
List of user-set options:

                                    Name   Value                used
                           compl_inf_tol = 1                     yes
                         constr_viol_tol = 1                     yes
                            dual_inf_tol = 1000                  yes
                           linear_solver = ma97                  yes
                              ma86_small = 1e-30                  no
                                  ma86_u = 0.0001                 no
                              ma97_order = best                  yes
                              ma97_small = 1e-30                 yes
                            ma97_switch1 = at_start              yes
                            ma97_switch2 = od_hd_reuse           yes
                                  ma97_u = 1e-06                 yes
                               ma97_umax = 0.5                   yes
                                max_iter = 1000                  yes
                    max_refinement_steps = 20                    yes
                    min_refinement_steps = 5                     yes
                                 mu_init = 1e-06                 yes
           mu_superlinear_decrease_power = 1.25                  yes
                   nlp_scaling_min_value = 1e-08                 yes
                        option_file_name = Preset_Case_664_pf.opt  yes
                             output_file = ./tmp/Preset_Case_664_pf.output  yes
                      print_user_options = yes                   yes
        required_infeasibility_reduction = 1                      no
                                     tol = 1e-08                 yes
                   warm_start_bound_frac = 1e-20                 yes
                   warm_start_bound_push = 1e-20                 yes
                   warm_start_init_point = yes                   yes
              warm_start_mult_bound_push = 1e-20                 yes
                warm_start_mult_init_max = 1e+40                 yes
             warm_start_slack_bound_frac = 1e-20                 yes
             warm_start_slack_bound_push = 1e-20                 yes

******************************************************************************
This program contains Ipopt, a library for large-scale nonlinear optimization.
 Ipopt is released as open source code under the Eclipse Public License (EPL).
         For more information visit http://projects.coin-or.org/Ipopt
******************************************************************************

This is Ipopt version 3.12.10, running with linear solver ma97.

Number of nonzeros in equality constraint Jacobian...:   123442
Number of nonzeros in inequality constraint Jacobian.:      213
Number of nonzeros in Lagrangian Hessian.............:    49069

Total number of variables............................:    31591
                     variables with only lower bounds:    12912
                variables with lower and upper bounds:    15130
                     variables with only upper bounds:        0
Total number of equality constraints.................:    31483
Total number of inequality constraints...............:       25
        inequality constraints with only lower bounds:        4
   inequality constraints with lower and upper bounds:        0
        inequality constraints with only upper bounds:       21

iter    objective    inf_pr   inf_du lg(mu)  ||d||  lg(rg) alpha_du alpha_pr  ls
   0 -5.1262256e+00 4.07e-03 1.02e+00  -6.0 0.00e+00    -  0.00e+00 0.00e+00   0
   1 -5.1258251e+00 8.07e-01 9.27e+00  -6.0 4.83e+05    -  6.73e-05 2.41e-04h  3
   2 -5.1290956e+00 8.07e-01 3.73e+01  -6.0 4.77e+03    -  1.63e-01 7.01e-04h  1
   3 -5.3358449e+00 6.76e+00 2.78e+03  -6.0 1.94e+03    -  1.15e-01 3.15e-01f  1
   4 -5.3828659e+00 6.90e+00 1.04e+03  -6.0 2.00e+03    -  3.46e-01 1.15e-01h  1
   5 -5.3734424e+00 2.18e-03 1.31e+04  -6.0 2.75e+00  -4.0 3.10e-01 1.00e+00h  1
   6 -5.4490208e+00 6.36e+00 1.10e+04  -6.0 3.43e+03    -  2.11e-01 1.76e-01f  1
   7 -5.5116674e+00 1.71e+01 8.59e+03  -6.0 3.06e+03    -  1.09e-01 2.82e-01h  1
   8 -5.5185650e+00 1.64e+01 7.09e+04  -6.0 1.78e+03    -  9.87e-02 4.27e-02h  1
   9 -5.5427038e+00 1.37e+01 4.35e+04  -6.0 1.19e+03    -  2.29e-01 2.53e-01h  1
iter    objective    inf_pr   inf_du lg(mu)  ||d||  lg(rg) alpha_du alpha_pr  ls
  10 -5.5588472e+00 1.20e+01 9.63e+03  -6.0 1.61e+03    -  1.46e-01 2.18e-01h  1
  11 -5.5627293e+00 1.16e+01 1.19e+05  -6.0 3.17e+03    -  2.56e-03 3.49e-02h  1
  12 -5.5671912e+00 1.10e+01 1.57e+05  -6.0 2.22e+03    -  2.98e-02 9.75e-02h  1
  13 -5.5672432e+00 1.10e+01 2.65e+05  -6.0 2.61e+03    -  9.20e-02 1.13e-03h  1
  14 -5.5699935e+00 1.07e+01 6.64e+07  -6.0 3.25e+03    -  8.80e-05 2.69e-02h  1
  15 -5.5773784e+00 5.11e+00 3.05e+07  -6.0 1.30e+03    -  8.07e-03 5.39e-01f  1
  16 -5.5783781e+00 4.29e+00 2.56e+07  -6.0 7.46e+02    -  2.33e-01 1.59e-01h  1
  17 -5.5811372e+00 2.57e+00 1.53e+07  -6.0 9.10e+02    -  2.49e-01 4.03e-01h  1
  18 -5.5841494e+00 1.32e+00 7.72e+06  -6.0 5.77e+02    -  3.01e-01 4.95e-01h  1
  19 -5.5931521e+00 1.36e+00 9.59e+03  -6.0 3.22e+02    -  8.14e-01 1.00e+00h  1
iter    objective    inf_pr   inf_du lg(mu)  ||d||  lg(rg) alpha_du alpha_pr  ls
  20 -5.5971200e+00 1.02e+00 1.02e+05  -6.0 2.09e+02    -  1.00e+00 3.03e-01h  1
  21 -5.6054337e+00 8.57e-01 3.82e+04  -6.0 2.10e+02    -  5.85e-01 6.01e-01h  1
  22 -5.6092003e+00 7.06e-01 4.26e+05  -6.0 7.36e+02    -  9.85e-02 2.36e-01h  1
  23 -5.6092076e+00 7.06e-01 4.41e+05  -6.0 2.52e+03    -  1.28e-01 3.69e-05h  1
  24 -5.6194530e+00 1.42e+00 7.27e+04  -6.0 6.89e+02    -  2.71e-01 3.66e-01f  1
  25 -5.6108458e+00 1.28e+00 2.33e+05  -6.0 5.02e+02    -  3.78e-01 1.01e-01h  3
  26 -5.6150939e+00 1.04e+00 2.74e+05  -6.0 3.00e+02    -  3.29e-01 1.90e-01h  1
  27 -5.6282516e+00 7.35e-01 1.26e+06  -6.0 3.19e+02    -  7.82e-01 3.09e-01h  1
  28 -5.6300933e+00 7.21e-01 8.38e+05  -6.0 5.75e+02    -  9.05e-02 4.42e-02h  1
  29r-5.6300933e+00 7.21e-01 1.00e+03  -0.1 0.00e+00    -  0.00e+00 7.20e-08R  2
iter    objective    inf_pr   inf_du lg(mu)  ||d||  lg(rg) alpha_du alpha_pr  ls
  30r-5.6692488e+00 7.19e-01 1.00e+03  -0.1 1.70e+04    -  7.77e-06 2.21e-06f  1
  31 -5.6681510e+00 6.97e-01 3.83e+04  -6.0 6.40e+01    -  6.33e-03 3.00e-02h  1
  32 -5.6225376e+00 4.51e-01 8.51e+04  -6.0 5.24e+01    -  3.00e-02 3.53e-01h  1
  33 -5.6205827e+00 3.81e-01 7.20e+04  -6.0 6.19e+00    -  2.42e-01 1.55e-01h  1
  34 -5.6218851e+00 2.42e-01 4.57e+04  -6.0 4.79e+00    -  6.04e-01 3.64e-01h  1
  35 -5.6363328e+00 1.35e-01 2.54e+04  -6.0 1.04e+01    -  7.13e-01 4.46e-01h  1
  36 -5.6286012e+00 1.51e-04 6.25e+00  -6.0 2.50e+00    -  9.05e-01 1.00e+00h  1
  37 -5.6331009e+00 4.13e-03 4.97e+00  -6.0 1.39e+01    -  9.58e-01 9.43e-01h  1
  38 -5.6370701e+00 1.68e-01 1.90e+00  -6.0 8.63e+01    -  9.69e-01 8.37e-01h  1
  39 -5.6410564e+00 5.83e-01 3.10e+00  -6.0 1.37e+02    -  9.74e-01 9.89e-01h  1
iter    objective    inf_pr   inf_du lg(mu)  ||d||  lg(rg) alpha_du alpha_pr  ls
  40 -5.6379985e+00 5.33e-02 7.84e+02  -6.0 2.27e+01    -  9.99e-01 9.16e-01h  1
  41 -5.6390839e+00 1.94e-02 3.89e+01  -6.0 2.17e+01    -  1.00e+00 1.00e+00f  1
  42 -5.6388765e+00 8.66e-04 1.00e+02  -6.0 4.61e+00    -  9.72e-01 1.00e+00h  1
  43 -5.6388017e+00 2.80e-06 1.45e-02  -6.0 2.60e-01    -  1.00e+00 1.00e+00h  1
  44 -5.6388020e+00 2.52e-09 1.84e-06  -6.0 7.85e-03    -  1.00e+00 1.00e+00h  1
  45 -5.6389264e+00 2.89e+00 6.02e+01  -7.5 5.70e+02    -  5.38e-01 7.45e-01h  1
  46 -5.6389239e+00 1.27e+00 1.20e+01  -7.5 1.73e+02    -  7.09e-01 6.33e-01h  1
  47 -5.6389181e+00 8.59e-02 4.72e-01  -7.5 7.10e+01    -  1.00e+00 1.00e+00h  1
  48 -5.6389173e+00 2.53e-03 8.34e-05  -7.5 4.44e+00    -  1.00e+00 1.00e+00h  1
  49 -5.6389173e+00 1.23e-07 2.31e-07  -7.5 2.89e-02    -  1.00e+00 1.00e+00h  1
iter    objective    inf_pr   inf_du lg(mu)  ||d||  lg(rg) alpha_du alpha_pr  ls
  50 -5.6389188e+00 8.27e-03 9.37e-01  -9.0 2.05e+01    -  9.27e-01 8.25e-01h  1
  51 -5.6389191e+00 3.19e-04 3.88e-03  -9.0 3.67e+00    -  1.00e+00 1.00e+00h  1
  52 -5.6389191e+00 1.20e-08 3.49e-07  -9.0 1.52e-02    -  1.00e+00 1.00e+00h  1
  53 -5.6389191e+00 4.31e-10 3.80e-09  -9.0 1.10e-03    -  1.00e+00 1.00e+00h  1

Number of Iterations....: 53

                                   (scaled)                 (unscaled)
Objective...............:  -4.4054055533861805e+00   -5.6389191083343109e+00
Dual infeasibility......:   3.8034347338289365e-09    4.8683964593010388e-09
Constraint violation....:   4.3089000553372947e-10    4.3089000553372947e-10
Complementarity.........:   9.1813810857608215e-10    1.1752167789773851e-09
Overall NLP error.......:   3.8034347338289365e-09    4.8683964593010388e-09


Number of objective function evaluations             = 63
Number of objective gradient evaluations             = 54
Number of equality constraint evaluations            = 63
Number of inequality constraint evaluations          = 63
Number of equality constraint Jacobian evaluations   = 55
Number of inequality constraint Jacobian evaluations = 55
Number of Lagrangian Hessian evaluations             = 53
Total CPU secs in IPOPT (w/o function evaluations)   =     94.071
Total CPU secs in NLP function evaluations           =      2.029

EXIT: Optimal Solution Found.
